instances/RANDOM_GRAPHS/RANDOM_20_0.6_3_2/BilevelModel_0.2.lp
\ENCODING=ISO-8859-1
\Problem name: IloCplex

Minimize
 obj1: x_a_0 + 3 x_a_1 + 3 x_a_2 + 3 x_a_3 + 3 x_a_4 + 2 x_a_5 + x_a_6
       + 2 x_a_7 + 3 x_a_8 + 2 x_a_9 + 3 x_a_10 + 3 x_a_11 + 2 x_a_12 + x_a_13
       + x_a_14 + x_a_15 + 2 x_a_16 + x_a_17 + 3 x_a_18 + 2 x_a_19 + 2 x_a_20
       + x_a_21 + 2 x_a_22 + 3 x_a_23 + x_a_24 + 2 x_a_25 + 2 x_a_26 + 3 x_a_27
       + x_a_28 + 3 x_a_29 + 3 x_a_30 + x_a_31 + 3 x_a_32 + 3 x_a_33 + x_a_34
       + 2 x_a_35 + x_a_36 + 3 x_a_37 + 2 x_a_38 + 3 x_a_39 + 2 x_a_40 + x_a_41
       + 2 x_a_42 + x_a_43 + 3 x_a_44 + x_a_45 + 3 x_a_46 + 3 x_a_47 + x_a_48
       + x_a_49 + 2 x_a_50 + x_a_51 + 2 x_a_52 + x_a_53 + 2 x_a_54 + 2 x_a_55
       + 2 x_a_56 + 3 x_a_57 + 2 x_a_58 + 2 x_a_59 + 3 x_a_60 + 3 x_a_61
       + 2 x_a_62 + 2 x_a_63 + 3 x_a_64 + 1000000000 x_a_65 + 1000000000 x_a_66
       + 1000000000 x_a_67 + 1000000000 x_a_68 + 1000000000 x_a_69
       + 1000000000 x_a_70 + 1000000000 x_a_71 + 1000000000 x_a_72
       + 10000 x_a_73
Subject To
 c1:  y_a_65 + y_a_66 + y_a_67 + y_a_68 <= 18.4
 c2:  y_a_0 + y_a_1 + y_a_2 + y_a_3 + y_a_4 + y_a_5 + y_a_6 + y_a_7 + y_a_70
       = 0
 c3:  - y_a_0 + y_a_8 + y_a_9 + y_a_10 + y_a_11 + y_a_12 + y_a_13 + y_a_14
      + y_a_15  = 0
 c4:  - y_a_1 - y_a_8 + y_a_16 + y_a_17 + y_a_18 + y_a_19 + y_a_20  = 0
 c5:  - y_a_2 - y_a_9 + y_a_21 + y_a_22 + y_a_23 + y_a_24 + y_a_25 + y_a_26
      + y_a_27  = 0
 c6:  - y_a_3 - y_a_10 + y_a_28 + y_a_29 + y_a_30 + y_a_31 + y_a_32 + y_a_33
      + y_a_34 + y_a_35 + y_a_69  = 0
 c7:  - y_a_11 - y_a_28 + y_a_36 + y_a_37 + y_a_38 + y_a_39 + y_a_71  = 0
 c8:  - y_a_68 - y_a_12 - y_a_21 - y_a_29 + y_a_40 + y_a_41 + y_a_42  = 0
 c9:  - y_a_4 - y_a_30 - y_a_40 + y_a_43 + y_a_44 + y_a_45 + y_a_46  = 0
 c10: - y_a_5 - y_a_13 - y_a_16 - y_a_22 - y_a_41 - y_a_43 + y_a_47 + y_a_48
      + y_a_49 + y_a_50 + y_a_51  = 0
 c11: - y_a_14 - y_a_31 - y_a_36 - y_a_44 + y_a_52 + y_a_53  = 0
 c12: - y_a_23 - y_a_32 + y_a_54 + y_a_55  = 0
 c13: - y_a_15 - y_a_17 - y_a_24 - y_a_45 - y_a_47 + y_a_56 + y_a_57  = 0
 c14: - y_a_25 - y_a_33 - y_a_46 - y_a_48 - y_a_52 + y_a_58 + y_a_59  = 0
 c15: - y_a_67 - y_a_18 - y_a_42 + y_a_60  = 0
 c16: - y_a_19 - y_a_34 - y_a_49 - y_a_58 - y_a_60 + y_a_61 + y_a_62 + y_a_72
       = 0
 c17: - y_a_6 - y_a_20 - y_a_26 - y_a_37 - y_a_50 - y_a_54 - y_a_56 + y_a_63
       = 0
 c18: - y_a_65 - y_a_27 - y_a_35 - y_a_38 - y_a_51 - y_a_55 - y_a_59 - y_a_61
      + y_a_64  = 0
 c19: - y_a_7 - y_a_39 - y_a_53 - y_a_57 - y_a_62 - y_a_63 - y_a_64  = 0
 c20: y_a_65 + y_a_67 + y_a_68 - y_a_73  = 0
 c21: - y_a_70 - y_a_69 - y_a_71 - y_a_72 + y_a_73  = 0
 c22: y_a_0 + 31 x_a_0 <= 31
 c23: y_a_1 + 5 x_a_1 <= 5
 c24: y_a_2 + 6 x_a_2 <= 6
 c25: y_a_3 + 20 x_a_3 <= 20
 c26: y_a_4 + 23 x_a_4 <= 23
 c27: y_a_5 + 37 x_a_5 <= 37
 c28: y_a_6 + 10 x_a_6 <= 10
 c29: y_a_7 + 36 x_a_7 <= 36
 c30: y_a_8 + 36 x_a_8 <= 36
 c31: y_a_9 + x_a_9 <= 1
 c32: y_a_10 + 23 x_a_10 <= 23
 c33: y_a_11 + 42 x_a_11 <= 42
 c34: y_a_12 + 32 x_a_12 <= 32
 c35: y_a_13 + 7 x_a_13 <= 7
 c36: y_a_14 + 15 x_a_14 <= 15
 c37: y_a_15 + 17 x_a_15 <= 17
 c38: y_a_16 + 37 x_a_16 <= 37
 c39: y_a_17 + 31 x_a_17 <= 31
 c40: y_a_18 + 42 x_a_18 <= 42
 c41: y_a_19 + 46 x_a_19 <= 46
 c42: y_a_20 + 11 x_a_20 <= 11
 c43: y_a_21 + 16 x_a_21 <= 16
 c44: y_a_22 + 37 x_a_22 <= 37
 c45: y_a_23 + 9 x_a_23 <= 9
 c46: y_a_24 + 44 x_a_24 <= 44
 c47: y_a_25 + 49 x_a_25 <= 49
 c48: y_a_26 + 12 x_a_26 <= 12
 c49: y_a_27 + 38 x_a_27 <= 38
 c50: y_a_28 + 38 x_a_28 <= 38
 c51: y_a_29 + 39 x_a_29 <= 39
 c52: y_a_30 + 25 x_a_30 <= 25
 c53: y_a_31 + x_a_31 <= 1
 c54: y_a_32 + 8 x_a_32 <= 8
 c55: y_a_33 + 10 x_a_33 <= 10
 c56: y_a_34 + 13 x_a_34 <= 13
 c57: y_a_35 + 4 x_a_35 <= 4
 c58: y_a_36 + 19 x_a_36 <= 19
 c59: y_a_37 + 40 x_a_37 <= 40
 c60: y_a_38 + 35 x_a_38 <= 35
 c61: y_a_39 + 6 x_a_39 <= 6
 c62: y_a_40 + 46 x_a_40 <= 46
 c63: y_a_41 + 11 x_a_41 <= 11
 c64: y_a_42 + 27 x_a_42 <= 27
 c65: y_a_43 + 31 x_a_43 <= 31
 c66: y_a_44 + 41 x_a_44 <= 41
 c67: y_a_45 + 10 x_a_45 <= 10
 c68: y_a_46 + 28 x_a_46 <= 28
 c69: y_a_47 + 35 x_a_47 <= 35
 c70: y_a_48 + 41 x_a_48 <= 41
 c71: y_a_49 + 47 x_a_49 <= 47
 c72: y_a_50 + 5 x_a_50 <= 5
 c73: y_a_51 + 17 x_a_51 <= 17
 c74: y_a_52 + 7 x_a_52 <= 7
 c75: y_a_53 + 35 x_a_53 <= 35
 c76: y_a_54 + 15 x_a_54 <= 15
 c77: y_a_55 + 11 x_a_55 <= 11
 c78: y_a_56 + 10 x_a_56 <= 10
 c79: y_a_57 + 44 x_a_57 <= 44
 c80: y_a_58 + 41 x_a_58 <= 41
 c81: y_a_59 + 15 x_a_59 <= 15
 c82: y_a_60 + 35 x_a_60 <= 35
 c83: y_a_61 + 19 x_a_61 <= 19
 c84: y_a_62 + 45 x_a_62 <= 45
 c85: y_a_63 + 14 x_a_63 <= 14
 c86: y_a_64 + 37 x_a_64 <= 37
 c87: y_a_65 + 50000000 x_a_65 <= 50000000
 c88: y_a_66 + 50000000 x_a_66 <= 50000000
 c89: y_a_67 + 50000000 x_a_67 <= 50000000
 c90: y_a_68 + 50000000 x_a_68 <= 50000000
 c91: y_a_69 + 50000000 x_a_69 <= 50000000
 c92: y_a_70 + 50000000 x_a_70 <= 50000000
 c93: y_a_71 + 50000000 x_a_71 <= 50000000
 c94: y_a_72 + 50000000 x_a_72 <= 50000000
 c95: y_a_73 + 10000 x_a_73 <= 10000
Bounds
 0 <= y_a_65 <= 50000000
 0 <= y_a_66 <= 50000000
 0 <= y_a_67 <= 50000000
 0 <= y_a_68 <= 50000000
 0 <= y_a_0 <= 31
 0 <= y_a_1 <= 5
 0 <= y_a_2 <= 6
 0 <= y_a_3 <= 20
 0 <= y_a_4 <= 23
 0 <= y_a_5 <= 37
 0 <= y_a_6 <= 10
 0 <= y_a_7 <= 36
 0 <= y_a_70 <= 50000000
 0 <= y_a_8 <= 36
 0 <= y_a_9 <= 1
 0 <= y_a_10 <= 23
 0 <= y_a_11 <= 42
 0 <= y_a_12 <= 32
 0 <= y_a_13 <= 7
 0 <= y_a_14 <= 15
 0 <= y_a_15 <= 17
 0 <= y_a_16 <= 37
 0 <= y_a_17 <= 31
 0 <= y_a_18 <= 42
 0 <= y_a_19 <= 46
 0 <= y_a_20 <= 11
 0 <= y_a_21 <= 16
 0 <= y_a_22 <= 37
 0 <= y_a_23 <= 9
 0 <= y_a_24 <= 44
 0 <= y_a_25 <= 49
 0 <= y_a_26 <= 12
 0 <= y_a_27 <= 38
 0 <= y_a_28 <= 38
 0 <= y_a_29 <= 39
 0 <= y_a_30 <= 25
 0 <= y_a_31 <= 1
 0 <= y_a_32 <= 8
 0 <= y_a_33 <= 10
 0 <= y_a_34 <= 13
 0 <= y_a_35 <= 4
 0 <= y_a_69 <= 50000000
 0 <= y_a_36 <= 19
 0 <= y_a_37 <= 40
 0 <= y_a_38 <= 35
 0 <= y_a_39 <= 6
 0 <= y_a_71 <= 50000000
 0 <= y_a_40 <= 46
 0 <= y_a_41 <= 11
 0 <= y_a_42 <= 27
 0 <= y_a_43 <= 31
 0 <= y_a_44 <= 41
 0 <= y_a_45 <= 10
 0 <= y_a_46 <= 28
 0 <= y_a_47 <= 35
 0 <= y_a_48 <= 41
 0 <= y_a_49 <= 47
 0 <= y_a_50 <= 5
 0 <= y_a_51 <= 17
 0 <= y_a_52 <= 7
 0 <= y_a_53 <= 35
 0 <= y_a_54 <= 15
 0 <= y_a_55 <= 11
 0 <= y_a_56 <= 10
 0 <= y_a_57 <= 44
 0 <= y_a_58 <= 41
 0 <= y_a_59 <= 15
 0 <= y_a_60 <= 35
 0 <= y_a_61 <= 19
 0 <= y_a_62 <= 45
 0 <= y_a_72 <= 50000000
 0 <= y_a_63 <= 14
 0 <= y_a_64 <= 37
 0 <= y_a_73 <= 10000
 0 <= x_a_0 <= 1
 0 <= x_a_1 <= 1
 0 <= x_a_2 <= 1
 0 <= x_a_3 <= 1
 0 <= x_a_4 <= 1
 0 <= x_a_5 <= 1
 0 <= x_a_6 <= 1
 0 <= x_a_7 <= 1
 0 <= x_a_8 <= 1
 0 <= x_a_9 <= 1
 0 <= x_a_10 <= 1
 0 <= x_a_11 <= 1
 0 <= x_a_12 <= 1
 0 <= x_a_13 <= 1
 0 <= x_a_14 <= 1
 0 <= x_a_15 <= 1
 0 <= x_a_16 <= 1
 0 <= x_a_17 <= 1
 0 <= x_a_18 <= 1
 0 <= x_a_19 <= 1
 0 <= x_a_20 <= 1
 0 <= x_a_21 <= 1
 0 <= x_a_22 <= 1
 0 <= x_a_23 <= 1
 0 <= x_a_24 <= 1
 0 <= x_a_25 <= 1
 0 <= x_a_26 <= 1
 0 <= x_a_27 <= 1
 0 <= x_a_28 <= 1
 0 <= x_a_29 <= 1
 0 <= x_a_30 <= 1
 0 <= x_a_31 <= 1
 0 <= x_a_32 <= 1
 0 <= x_a_33 <= 1
 0 <= x_a_34 <= 1
 0 <= x_a_35 <= 1
 0 <= x_a_36 <= 1
 0 <= x_a_37 <= 1
 0 <= x_a_38 <= 1
 0 <= x_a_39 <= 1
 0 <= x_a_40 <= 1
 0 <= x_a_41 <= 1
 0 <= x_a_42 <= 1
 0 <= x_a_43 <= 1
 0 <= x_a_44 <= 1
 0 <= x_a_45 <= 1
 0 <= x_a_46 <= 1
 0 <= x_a_47 <= 1
 0 <= x_a_48 <= 1
 0 <= x_a_49 <= 1
 0 <= x_a_50 <= 1
 0 <= x_a_51 <= 1
 0 <= x_a_52 <= 1
 0 <= x_a_53 <= 1
 0 <= x_a_54 <= 1
 0 <= x_a_55 <= 1
 0 <= x_a_56 <= 1
 0 <= x_a_57 <= 1
 0 <= x_a_58 <= 1
 0 <= x_a_59 <= 1
 0 <= x_a_60 <= 1
 0 <= x_a_61 <= 1
 0 <= x_a_62 <= 1
 0 <= x_a_63 <= 1
 0 <= x_a_64 <= 1
 0 <= x_a_65 <= 1
 0 <= x_a_66 <= 1
 0 <= x_a_67 <= 1
 0 <= x_a_68 <= 1
 0 <= x_a_69 <= 1
 0 <= x_a_70 <= 1
 0 <= x_a_71 <= 1
 0 <= x_a_72 <= 1
 0 <= x_a_73 <= 1
Binaries
 y_a_9  y_a_31  x_a_0  x_a_1  x_a_2  x_a_3  x_a_4  x_a_5  x_a_6  x_a_7  x_a_8 
 x_a_9  x_a_10  x_a_11  x_a_12  x_a_13  x_a_14  x_a_15  x_a_16  x_a_17  x_a_18 
 x_a_19  x_a_20  x_a_21  x_a_22  x_a_23  x_a_24  x_a_25  x_a_26  x_a_27 
 x_a_28  x_a_29  x_a_30  x_a_31  x_a_32  x_a_33  x_a_34  x_a_35  x_a_36 
 x_a_37  x_a_38  x_a_39  x_a_40  x_a_41  x_a_42  x_a_43  x_a_44  x_a_45 
 x_a_46  x_a_47  x_a_48  x_a_49  x_a_50  x_a_51  x_a_52  x_a_53  x_a_54 
 x_a_55  x_a_56  x_a_57  x_a_58  x_a_59  x_a_60  x_a_61  x_a_62  x_a_63 
 x_a_64  x_a_65  x_a_66  x_a_67  x_a_68  x_a_69  x_a_70  x_a_71  x_a_72 
 x_a_73 
Generals
 y_a_65  y_a_66  y_a_67  y_a_68  y_a_0  y_a_1  y_a_2  y_a_3  y_a_4  y_a_5 
 y_a_6  y_a_7  y_a_70  y_a_8  y_a_10  y_a_11  y_a_12  y_a_13  y_a_14  y_a_15 
 y_a_16  y_a_17  y_a_18  y_a_19  y_a_20  y_a_21  y_a_22  y_a_23  y_a_24 
 y_a_25  y_a_26  y_a_27  y_a_28  y_a_29  y_a_30  y_a_32  y_a_33  y_a_34 
 y_a_35  y_a_69  y_a_36  y_a_37  y_a_38  y_a_39  y_a_71  y_a_40  y_a_41 
 y_a_42  y_a_43  y_a_44  y_a_45  y_a_46  y_a_47  y_a_48  y_a_49  y_a_50 
 y_a_51  y_a_52  y_a_53  y_a_54  y_a_55  y_a_56  y_a_57  y_a_58  y_a_59 
 y_a_60  y_a_61  y_a_62  y_a_72  y_a_63  y_a_64  y_a_73 
End
